decision_x1=[0,7];
decision_x2=[0,7];
decision_x3=[0,7];
decision_x4=[0,7];
decision_x5=[0,7];
decision_x6=[0,7];
decision_x7=[0,7];
decision_x8=[0,7];
decision_x9=[0,7];
decision_x10=[0,7];
decision_x11=[0,7];
decision_x12=[0,7];
decision_x13=[0,7];
decision_x14=[0,7];
decision_x15=[0,7];
decision_x16=[0,7];
decision_x17=[0,7];
decision_x18=[0,7];
decision_x19=[0,7];
decision_x20=[0,7];
random_y1=[0,7];
random_y2=[0,7];
random_y3=[0,7];
random_y4=[0,7];
random_y5=[0,7];
random_y6=[0,7];
random_y7=[0,7];
random_y8=[0,7];
random_y9=[0,7];
constraint_x2_x1=[
0,0,0.7|
0,1,5.8|
0,2,9.7|
0,3,0.78|
0,4,0.99|
0,5,7.1|
0,6,3.2|
0,7,1.3|
1,0,7.6|
1,1,2.1|
1,2,4.4|
1,3,8.1|
1,4,3.5|
1,5,8.4|
1,6,2.9|
1,7,9.5|
2,0,9.1|
2,1,8.8|
2,2,7.6|
2,3,9.2|
2,4,2.3|
2,5,0.36|
2,6,2.3|
2,7,8.6|
3,0,1.8|
3,1,0.12|
3,2,3.6|
3,3,5|
3,4,9.2|
3,5,0.57|
3,6,7.2|
3,7,1.9|
4,0,1.5|
4,1,5|
4,2,3.3|
4,3,2.5|
4,4,1.2|
4,5,2|
4,6,8|
4,7,0.46|
5,0,0.47|
5,1,0.035|
5,2,4.7|
5,3,3.5|
5,4,9.4|
5,5,6.8|
5,6,5.8|
5,7,0.094|
6,0,5.1|
6,1,0.2|
6,2,9.8|
6,3,0.69|
6,4,3.2|
6,5,8.8|
6,6,7.4|
6,7,4.1|
7,0,1.9|
7,1,0.7|
7,2,9.6|
7,3,5|
7,4,5.7|
7,5,7.9|
7,6,4.9|
7,7,9|
];
constraint_x3_x2=[
0,0,0.76|
0,1,2.5|
0,2,5.6|
0,3,4.8|
0,4,0.021|
0,5,8|
0,6,9.7|
0,7,4.4|
1,0,6.8|
1,1,3.1|
1,2,2|
1,3,7.4|
1,4,5.8|
1,5,5.3|
1,6,2.7|
1,7,5.4|
2,0,6.4|
2,1,4.4|
2,2,4.5|
2,3,1.5|
2,4,7.9|
2,5,8.4|
2,6,2|
2,7,9.7|
3,0,0.25|
3,1,0.53|
3,2,6|
3,3,4.9|
3,4,0.44|
3,5,6.1|
3,6,1.5|
3,7,0.37|
4,0,1.4|
4,1,2.1|
4,2,7.5|
4,3,1.5|
4,4,0.4|
4,5,5.1|
4,6,3.2|
4,7,6.8|
5,0,9.2|
5,1,3.5|
5,2,1.6|
5,3,6.9|
5,4,8.5|
5,5,5|
5,6,5.6|
5,7,7.6|
6,0,2.7|
6,1,0.46|
6,2,4.4|
6,3,6.4|
6,4,3.7|
6,5,8.7|
6,6,4.3|
6,7,3.7|
7,0,7.3|
7,1,1.6|
7,2,3.7|
7,3,3.8|
7,4,5.8|
7,5,5.2|
7,6,2.4|
7,7,2.7|
];
constraint_x4_x3=[
0,0,9.5|
0,1,5.6|
0,2,2|
0,3,1.2|
0,4,3.5|
0,5,4.2|
0,6,6.9|
0,7,4.1|
1,0,5.3|
1,1,0.36|
1,2,9.9|
1,3,3.3|
1,4,8.6|
1,5,4.7|
1,6,5.7|
1,7,0.071|
2,0,9.2|
2,1,3.8|
2,2,8.9|
2,3,9.1|
2,4,0.33|
2,5,0.51|
2,6,4.7|
2,7,4.1|
3,0,7.8|
3,1,2.5|
3,2,5.7|
3,3,9.8|
3,4,0.52|
3,5,9.4|
3,6,4.7|
3,7,6.6|
4,0,0.83|
4,1,0.27|
4,2,3|
4,3,8.1|
4,4,1.6|
4,5,6.1|
4,6,9.2|
4,7,7.6|
5,0,5.3|
5,1,5.3|
5,2,3|
5,3,8.9|
5,4,7.3|
5,5,4.5|
5,6,3.1|
5,7,2.5|
6,0,0.98|
6,1,7.7|
6,2,9.1|
6,3,3.4|
6,4,2.2|
6,5,6.1|
6,6,1.6|
6,7,0.97|
7,0,2.7|
7,1,1.4|
7,2,5|
7,3,5|
7,4,3.8|
7,5,6.9|
7,6,0.71|
7,7,5.5|
];
constraint_x5_x1=[
0,0,3|
0,1,2.9|
0,2,1.4|
0,3,4.5|
0,4,0.97|
0,5,6.8|
0,6,9.1|
0,7,2|
1,0,7.4|
1,1,8.2|
1,2,3.9|
1,3,9.4|
1,4,3|
1,5,7.8|
1,6,0.73|
1,7,3.7|
2,0,7.3|
2,1,4.2|
2,2,8.9|
2,3,2|
2,4,7.5|
2,5,8.4|
2,6,2.7|
2,7,1.1|
3,0,0.23|
3,1,0.94|
3,2,8.3|
3,3,5.8|
3,4,9.4|
3,5,1.2|
3,6,6.2|
3,7,2.5|
4,0,8.9|
4,1,1.1|
4,2,8.3|
4,3,8.2|
4,4,8.2|
4,5,1.5|
4,6,4.3|
4,7,0.53|
5,0,1.6|
5,1,8.9|
5,2,3.4|
5,3,7.5|
5,4,3.4|
5,5,8.5|
5,6,3|
5,7,0.82|
6,0,7.9|
6,1,9.2|
6,2,9.5|
6,3,8|
6,4,8.4|
6,5,5.2|
6,6,3|
6,7,3.2|
7,0,0.41|
7,1,1.2|
7,2,3.5|
7,3,0.97|
7,4,1.4|
7,5,4.1|
7,6,8.8|
7,7,7|
];
constraint_x6_x2=[
0,0,2.3|
0,1,7.2|
0,2,4.4|
0,3,8.5|
0,4,9.3|
0,5,9.9|
0,6,9.2|
0,7,0.064|
1,0,5.1|
1,1,6.1|
1,2,1.5|
1,3,7.5|
1,4,1.6|
1,5,2.3|
1,6,4.6|
1,7,6.7|
2,0,8.1|
2,1,8.2|
2,2,5.4|
2,3,8.7|
2,4,9.8|
2,5,2.3|
2,6,4.3|
2,7,9|
3,0,9.8|
3,1,9.1|
3,2,8.2|
3,3,9.7|
3,4,8.4|
3,5,4|
3,6,3.3|
3,7,2|
4,0,9.8|
4,1,4|
4,2,5.4|
4,3,6|
4,4,1.7|
4,5,8.2|
4,6,8.2|
4,7,5.8|
5,0,9.3|
5,1,3.2|
5,2,9.6|
5,3,0.015|
5,4,9.3|
5,5,6.1|
5,6,0.66|
5,7,5.4|
6,0,4.1|
6,1,9.9|
6,2,6.8|
6,3,6.1|
6,4,6.8|
6,5,2.4|
6,6,1.6|
6,7,9.6|
7,0,2.2|
7,1,6.5|
7,2,5.8|
7,3,0.25|
7,4,7.4|
7,5,7.5|
7,6,2.5|
7,7,1.3|
];
constraint_x7_x3=[
0,0,1.2|
0,1,5.6|
0,2,3.9|
0,3,7.6|
0,4,0.24|
0,5,4.7|
0,6,9.7|
0,7,3.7|
1,0,7.6|
1,1,1.3|
1,2,8.3|
1,3,2.9|
1,4,6.9|
1,5,6.5|
1,6,7.8|
1,7,0.46|
2,0,7.7|
2,1,5|
2,2,7.9|
2,3,1.1|
2,4,8.8|
2,5,7.9|
2,6,8.2|
2,7,9.9|
3,0,5.1|
3,1,6.4|
3,2,7.2|
3,3,10|
3,4,4.8|
3,5,0.27|
3,6,0.17|
3,7,7|
4,0,3.9|
4,1,8.7|
4,2,7.2|
4,3,9.5|
4,4,3.7|
4,5,9.7|
4,6,1.6|
4,7,8.3|
5,0,2.2|
5,1,7.9|
5,2,1.5|
5,3,8.1|
5,4,7.4|
5,5,1.5|
5,6,1.2|
5,7,8.8|
6,0,2.2|
6,1,5.3|
6,2,0.0095|
6,3,6.3|
6,4,7.5|
6,5,5.2|
6,6,1.1|
6,7,8|
7,0,0.62|
7,1,1.4|
7,2,4.8|
7,3,5.5|
7,4,3.9|
7,5,3.9|
7,6,6.5|
7,7,6.4|
];
constraint_x8_x4=[
0,0,0.16|
0,1,7.4|
0,2,1.2|
0,3,4.1|
0,4,8.5|
0,5,2.3|
0,6,2.3|
0,7,9|
1,0,2.5|
1,1,8.8|
1,2,5.5|
1,3,0.62|
1,4,3.6|
1,5,8.5|
1,6,5.5|
1,7,6.7|
2,0,4|
2,1,5.9|
2,2,6.4|
2,3,7.3|
2,4,9.2|
2,5,3.6|
2,6,2|
2,7,0.89|
3,0,0.56|
3,1,3.4|
3,2,0.57|
3,3,4|
3,4,9.9|
3,5,10|
3,6,7.3|
3,7,6.6|
4,0,0.7|
4,1,5.6|
4,2,1.3|
4,3,3.9|
4,4,9|
4,5,6.2|
4,6,8.3|
4,7,4.5|
5,0,6.6|
5,1,0.5|
5,2,4.9|
5,3,9.4|
5,4,3.9|
5,5,5.3|
5,6,2.8|
5,7,5.6|
6,0,6.5|
6,1,0.32|
6,2,4.3|
6,3,1.4|
6,4,3.4|
6,5,5.4|
6,6,2.1|
6,7,6.8|
7,0,8.5|
7,1,4.8|
7,2,8.6|
7,3,9.8|
7,4,0.77|
7,5,8.2|
7,6,2.1|
7,7,0.9|
];
constraint_x9_x5=[
0,0,8.8|
0,1,6.3|
0,2,1.6|
0,3,2.9|
0,4,9.8|
0,5,3.9|
0,6,7.8|
0,7,0.47|
1,0,2.9|
1,1,6.4|
1,2,5.7|
1,3,8.8|
1,4,2.5|
1,5,4.5|
1,6,7.4|
1,7,9.7|
2,0,9.5|
2,1,2.2|
2,2,3.2|
2,3,3.4|
2,4,7.6|
2,5,2|
2,6,8.4|
2,7,2.8|
3,0,6.9|
3,1,5.7|
3,2,8.5|
3,3,0.15|
3,4,4.6|
3,5,5.1|
3,6,4.8|
3,7,9|
4,0,8.3|
4,1,1.5|
4,2,2.9|
4,3,2.4|
4,4,1.4|
4,5,6.6|
4,6,8.3|
4,7,0.11|
5,0,5|
5,1,5.8|
5,2,1.5|
5,3,1|
5,4,1.5|
5,5,2.3|
5,6,6.9|
5,7,1.4|
6,0,1.6|
6,1,7.5|
6,2,4.5|
6,3,6.1|
6,4,9.1|
6,5,4.3|
6,6,5.9|
6,7,7.1|
7,0,1.1|
7,1,4.1|
7,2,0.12|
7,3,7.6|
7,4,8.3|
7,5,5.3|
7,6,7.4|
7,7,7.3|
];
constraint_x10_x6=[
0,0,8|
0,1,9.1|
0,2,0.6|
0,3,10|
0,4,6.4|
0,5,8.6|
0,6,0.3|
0,7,4.4|
1,0,6.1|
1,1,6.1|
1,2,7.9|
1,3,6|
1,4,8.3|
1,5,5.7|
1,6,5.9|
1,7,5.4|
2,0,5.3|
2,1,2.8|
2,2,6.7|
2,3,2.6|
2,4,6.3|
2,5,1.5|
2,6,1.8|
2,7,4.8|
3,0,7.5|
3,1,2.7|
3,2,7.3|
3,3,0.5|
3,4,8.7|
3,5,9.5|
3,6,8|
3,7,9.4|
4,0,0.41|
4,1,8.2|
4,2,8.8|
4,3,8.9|
4,4,4.4|
4,5,0.84|
4,6,6.7|
4,7,3.2|
5,0,8.4|
5,1,0.49|
5,2,4|
5,3,4.8|
5,4,8.6|
5,5,6.5|
5,6,1.7|
5,7,7.8|
6,0,8.7|
6,1,6.2|
6,2,2.5|
6,3,5.2|
6,4,4.5|
6,5,7.3|
6,6,7.6|
6,7,10|
7,0,9.5|
7,1,5.4|
7,2,0.046|
7,3,9|
7,4,1.4|
7,5,9.8|
7,6,3.1|
7,7,1.9|
];
constraint_x11_x7=[
0,0,4|
0,1,4|
0,2,9.6|
0,3,1.4|
0,4,7.8|
0,5,8|
0,6,5.8|
0,7,0.61|
1,0,1.2|
1,1,4.3|
1,2,6.7|
1,3,8.9|
1,4,1.6|
1,5,0.43|
1,6,2.7|
1,7,5.1|
2,0,4.8|
2,1,3.2|
2,2,4.5|
2,3,4.4|
2,4,0.55|
2,5,1|
2,6,3.6|
2,7,1|
3,0,7.3|
3,1,9.9|
3,2,2.6|
3,3,3.2|
3,4,6.7|
3,5,9.2|
3,6,3.9|
3,7,6.9|
4,0,9.5|
4,1,6.5|
4,2,0.79|
4,3,7.7|
4,4,6.7|
4,5,5.7|
4,6,0.49|
4,7,5|
5,0,7.6|
5,1,9.4|
5,2,9.5|
5,3,3.8|
5,4,4.9|
5,5,1.4|
5,6,6.6|
5,7,5|
6,0,0.29|
6,1,7.6|
6,2,2.7|
6,3,6.3|
6,4,8.8|
6,5,9|
6,6,3.7|
6,7,7.7|
7,0,0.97|
7,1,8|
7,2,4.6|
7,3,8.9|
7,4,0.73|
7,5,8.8|
7,6,1.7|
7,7,6.8|
];
constraint_x12_x8=[
0,0,5.4|
0,1,3|
0,2,0.42|
0,3,5|
0,4,4.7|
0,5,8.9|
0,6,4.7|
0,7,5.4|
1,0,6.6|
1,1,1.9|
1,2,8.9|
1,3,7.3|
1,4,9.3|
1,5,1.2|
1,6,7|
1,7,0.35|
2,0,4.6|
2,1,1.7|
2,2,6.5|
2,3,7.7|
2,4,1.9|
2,5,5.8|
2,6,9.7|
2,7,5.5|
3,0,5.7|
3,1,3.4|
3,2,6.9|
3,3,8.1|
3,4,6.4|
3,5,8.2|
3,6,5.4|
3,7,0.84|
4,0,8.3|
4,1,8.1|
4,2,4.1|
4,3,0.2|
4,4,3.4|
4,5,6.8|
4,6,4|
4,7,3.6|
5,0,5.8|
5,1,0.57|
5,2,3.7|
5,3,6|
5,4,1.8|
5,5,0.51|
5,6,1.4|
5,7,9.2|
6,0,7.5|
6,1,1|
6,2,8.2|
6,3,8.2|
6,4,0.65|
6,5,4.1|
6,6,0.39|
6,7,2.7|
7,0,4.8|
7,1,2.8|
7,2,3.8|
7,3,5|
7,4,8.7|
7,5,2.8|
7,6,6.6|
7,7,7.9|
];
constraint_x13_x9=[
0,0,0.26|
0,1,3.5|
0,2,4.2|
0,3,5|
0,4,9.1|
0,5,4.7|
0,6,3.3|
0,7,6.8|
1,0,5|
1,1,9.9|
1,2,3.1|
1,3,4.1|
1,4,6.2|
1,5,2.1|
1,6,7.5|
1,7,8.3|
2,0,4|
2,1,0.25|
2,2,9.4|
2,3,7|
2,4,3.1|
2,5,3.5|
2,6,6.3|
2,7,0.51|
3,0,7.1|
3,1,2.1|
3,2,4|
3,3,0.095|
3,4,1.1|
3,5,3.9|
3,6,1.9|
3,7,2.8|
4,0,8.1|
4,1,9.5|
4,2,6.6|
4,3,7.6|
4,4,4.9|
4,5,4|
4,6,3.6|
4,7,7.3|
5,0,0.99|
5,1,4.2|
5,2,5.4|
5,3,4.3|
5,4,9.5|
5,5,6.7|
5,6,3.8|
5,7,3|
6,0,3.1|
6,1,6.9|
6,2,3.8|
6,3,3.7|
6,4,5.5|
6,5,0.94|
6,6,9.5|
6,7,5.1|
7,0,9.9|
7,1,1.1|
7,2,2.1|
7,3,0.32|
7,4,3.4|
7,5,2|
7,6,4.4|
7,7,8.8|
];
constraint_x14_x10=[
0,0,9.5|
0,1,4.6|
0,2,5.2|
0,3,7.8|
0,4,5.6|
0,5,6.5|
0,6,3.3|
0,7,3.5|
1,0,0.14|
1,1,3.9|
1,2,9.2|
1,3,4|
1,4,8.5|
1,5,0.037|
1,6,0.64|
1,7,9.8|
2,0,2.6|
2,1,1.1|
2,2,3.1|
2,3,6.5|
2,4,4.5|
2,5,3.1|
2,6,6.3|
2,7,6.2|
3,0,5|
3,1,5.7|
3,2,9.3|
3,3,3.5|
3,4,7.1|
3,5,6.3|
3,6,3.6|
3,7,9.9|
4,0,2.6|
4,1,1.8|
4,2,9.6|
4,3,1.8|
4,4,5.8|
4,5,8.9|
4,6,3.9|
4,7,3.8|
5,0,4.9|
5,1,6.8|
5,2,1.2|
5,3,6.7|
5,4,8.8|
5,5,7.1|
5,6,5.4|
5,7,0.13|
6,0,7.3|
6,1,6.4|
6,2,9.8|
6,3,6.6|
6,4,3.5|
6,5,2.7|
6,6,0.31|
6,7,5.4|
7,0,8.2|
7,1,7.9|
7,2,0.31|
7,3,9.3|
7,4,3.3|
7,5,9.5|
7,6,5.5|
7,7,2.8|
];
constraint_x15_x11=[
0,0,1.9|
0,1,7.2|
0,2,1.2|
0,3,6.7|
0,4,2.1|
0,5,8.2|
0,6,8.9|
0,7,9.9|
1,0,8.9|
1,1,2|
1,2,2.7|
1,3,4.2|
1,4,7.3|
1,5,4.1|
1,6,4.4|
1,7,9.2|
2,0,1.7|
2,1,4.7|
2,2,3.2|
2,3,1.1|
2,4,4.7|
2,5,9.9|
2,6,7.1|
2,7,2.9|
3,0,8.2|
3,1,9.9|
3,2,7.8|
3,3,4.5|
3,4,4.8|
3,5,4.8|
3,6,2.7|
3,7,9.2|
4,0,0.3|
4,1,3.5|
4,2,0.46|
4,3,4.4|
4,4,9.5|
4,5,1.6|
4,6,4.5|
4,7,1.7|
5,0,5.5|
5,1,8.7|
5,2,8.1|
5,3,6.5|
5,4,9.2|
5,5,3.8|
5,6,4|
5,7,0.011|
6,0,9.5|
6,1,0.63|
6,2,5.3|
6,3,0.84|
6,4,8|
6,5,8.3|
6,6,9.7|
6,7,7.9|
7,0,3.9|
7,1,4.8|
7,2,7.3|
7,3,3.9|
7,4,5.8|
7,5,0.94|
7,6,8.4|
7,7,6.2|
];
constraint_x16_x12=[
0,0,3.9|
0,1,7|
0,2,5.6|
0,3,1.7|
0,4,4|
0,5,4.9|
0,6,1.8|
0,7,6.8|
1,0,8.3|
1,1,7|
1,2,0.74|
1,3,0.96|
1,4,3.7|
1,5,3.8|
1,6,0.87|
1,7,0.99|
2,0,4.9|
2,1,3.4|
2,2,4|
2,3,1.1|
2,4,8.8|
2,5,8.2|
2,6,2.3|
2,7,8.5|
3,0,2|
3,1,9|
3,2,5.2|
3,3,4.1|
3,4,3.7|
3,5,2|
3,6,3.4|
3,7,4|
4,0,9.3|
4,1,2.7|
4,2,1.5|
4,3,4.9|
4,4,9.2|
4,5,5.8|
4,6,2.6|
4,7,6.6|
5,0,3.9|
5,1,1.8|
5,2,0.16|
5,3,4|
5,4,0.66|
5,5,9.2|
5,6,0.83|
5,7,8|
6,0,3.5|
6,1,5.4|
6,2,9.5|
6,3,8.5|
6,4,2.4|
6,5,1.9|
6,6,1.3|
6,7,5.3|
7,0,7.6|
7,1,8.2|
7,2,1|
7,3,3.5|
7,4,6.3|
7,5,9.6|
7,6,1.5|
7,7,0.77|
];
constraint_x17_x13=[
0,0,2.8|
0,1,7.1|
0,2,5.6|
0,3,8.8|
0,4,2.9|
0,5,8|
0,6,0.6|
0,7,3.9|
1,0,7.8|
1,1,9.7|
1,2,1.8|
1,3,2.1|
1,4,0.59|
1,5,7.6|
1,6,8.8|
1,7,9.6|
2,0,2.6|
2,1,9.2|
2,2,0.06|
2,3,10|
2,4,0.86|
2,5,5.2|
2,6,6.3|
2,7,0.99|
3,0,5.6|
3,1,6.7|
3,2,8.1|
3,3,4.4|
3,4,7.2|
3,5,2.5|
3,6,8.5|
3,7,3|
4,0,3|
4,1,2.5|
4,2,7.6|
4,3,6.7|
4,4,7.4|
4,5,4.7|
4,6,7.9|
4,7,6|
5,0,7.1|
5,1,3.1|
5,2,4|
5,3,5|
5,4,9.4|
5,5,1.9|
5,6,9.6|
5,7,2.4|
6,0,3.7|
6,1,5.5|
6,2,9.6|
6,3,8.3|
6,4,4.1|
6,5,5.8|
6,6,3.7|
6,7,4.8|
7,0,4.4|
7,1,4.9|
7,2,8.5|
7,3,5.7|
7,4,4.4|
7,5,9.4|
7,6,2.7|
7,7,3.7|
];
constraint_x18_x14=[
0,0,9.2|
0,1,6.8|
0,2,2.3|
0,3,1.5|
0,4,1.1|
0,5,6|
0,6,9.8|
0,7,5.6|
1,0,9.7|
1,1,2.8|
1,2,3.1|
1,3,9.7|
1,4,8.3|
1,5,5.2|
1,6,0.38|
1,7,2|
2,0,0.74|
2,1,6.4|
2,2,2.5|
2,3,1.7|
2,4,2.2|
2,5,5.9|
2,6,0.76|
2,7,4.5|
3,0,4.1|
3,1,1|
3,2,1.1|
3,3,5|
3,4,3|
3,5,0.73|
3,6,8.2|
3,7,1.2|
4,0,6.2|
4,1,8.9|
4,2,4.2|
4,3,4.2|
4,4,5.5|
4,5,1.3|
4,6,9.4|
4,7,5.6|
5,0,5.4|
5,1,8.2|
5,2,7.7|
5,3,6.2|
5,4,3.7|
5,5,7.2|
5,6,1.3|
5,7,3.8|
6,0,6.2|
6,1,9.2|
6,2,7|
6,3,0.65|
6,4,3.4|
6,5,8.4|
6,6,4|
6,7,1.9|
7,0,3.9|
7,1,5.4|
7,2,3.1|
7,3,5.8|
7,4,2.1|
7,5,7.7|
7,6,3|
7,7,6.4|
];
constraint_x19_x15=[
0,0,0.6|
0,1,1.9|
0,2,9.8|
0,3,9.1|
0,4,4.8|
0,5,0.57|
0,6,0.21|
0,7,2.5|
1,0,4|
1,1,4.7|
1,2,6.9|
1,3,8|
1,4,3.9|
1,5,9|
1,6,8.2|
1,7,8.7|
2,0,7.6|
2,1,3.8|
2,2,2.4|
2,3,7.3|
2,4,8.8|
2,5,8.9|
2,6,8.6|
2,7,4.3|
3,0,3.9|
3,1,1.8|
3,2,4.5|
3,3,4.1|
3,4,4.3|
3,5,8.2|
3,6,5.2|
3,7,4.6|
4,0,2|
4,1,2.5|
4,2,0.86|
4,3,2.4|
4,4,2.2|
4,5,6.8|
4,6,6.7|
4,7,9.1|
5,0,8.3|
5,1,9.8|
5,2,1.8|
5,3,6.5|
5,4,4.7|
5,5,5.1|
5,6,1.7|
5,7,4|
6,0,5.5|
6,1,9.2|
6,2,8.6|
6,3,3.8|
6,4,7.8|
6,5,1.7|
6,6,4.2|
6,7,8.4|
7,0,10|
7,1,8|
7,2,9.3|
7,3,8.2|
7,4,1.3|
7,5,2.7|
7,6,8|
7,7,5.7|
];
constraint_x20_x16=[
0,0,6|
0,1,2.3|
0,2,2|
0,3,7.3|
0,4,6.4|
0,5,6.5|
0,6,6.6|
0,7,2.6|
1,0,8|
1,1,3.8|
1,2,0.02|
1,3,7.9|
1,4,3.4|
1,5,7.6|
1,6,9.9|
1,7,4.6|
2,0,4.9|
2,1,1.2|
2,2,0.73|
2,3,4.1|
2,4,2.1|
2,5,2.1|
2,6,0.43|
2,7,6.5|
3,0,3.8|
3,1,9.3|
3,2,8.4|
3,3,0.88|
3,4,6.3|
3,5,0.042|
3,6,4.9|
3,7,1.9|
4,0,0.84|
4,1,6|
4,2,2.2|
4,3,1.9|
4,4,6|
4,5,7.4|
4,6,5.6|
4,7,3.6|
5,0,0.22|
5,1,5.1|
5,2,5|
5,3,6|
5,4,1.7|
5,5,7|
5,6,1.7|
5,7,6.4|
6,0,3.2|
6,1,5.6|
6,2,7.1|
6,3,9.9|
6,4,9.1|
6,5,8.6|
6,6,3.5|
6,7,3.1|
7,0,0.44|
7,1,3.8|
7,2,0.61|
7,3,9.8|
7,4,3.3|
7,5,0.83|
7,6,8.5|
7,7,9.2|
];
constraint_x1_y1=[
0,0,7.6|
0,1,0.25|
0,2,8.8|
0,3,5.2|
0,4,6.5|
0,5,2.3|
0,6,4.9|
0,7,0.99|
1,0,1.5|
1,1,5.8|
1,2,4.9|
1,3,3.8|
1,4,2.7|
1,5,8.3|
1,6,7|
1,7,5.4|
2,0,5.7|
2,1,3.2|
2,2,1.1|
2,3,5.6|
2,4,5|
2,5,0.07|
2,6,9.1|
2,7,0.26|
3,0,7.1|
3,1,9|
3,2,9.1|
3,3,3.4|
3,4,5.2|
3,5,9.7|
3,6,3.7|
3,7,9.3|
4,0,7.6|
4,1,8.3|
4,2,7.4|
4,3,5.7|
4,4,7.2|
4,5,7.4|
4,6,5.1|
4,7,3.3|
5,0,7.1|
5,1,2.1|
5,2,8.8|
5,3,2.8|
5,4,8.6|
5,5,4.9|
5,6,1.1|
5,7,9.1|
6,0,10|
6,1,8.4|
6,2,8.1|
6,3,5.4|
6,4,8.1|
6,5,8.2|
6,6,6.2|
6,7,5.5|
7,0,2.6|
7,1,7.5|
7,2,5.9|
7,3,5.2|
7,4,4.1|
7,5,0.12|
7,6,3.5|
7,7,8|
];
constraint_x2_y2=[
0,0,7.5|
0,1,6.7|
0,2,4.9|
0,3,5.8|
0,4,4.8|
0,5,3.8|
0,6,7|
0,7,1.3|
1,0,0.88|
1,1,8.1|
1,2,1.8|
1,3,3.1|
1,4,1.8|
1,5,8.8|
1,6,7.7|
1,7,3.4|
2,0,7.4|
2,1,9.8|
2,2,2.9|
2,3,1.9|
2,4,5.6|
2,5,0.86|
2,6,4.6|
2,7,8.7|
3,0,8.6|
3,1,9.8|
3,2,9.2|
3,3,1.3|
3,4,0.36|
3,5,7.2|
3,6,1.6|
3,7,0.39|
4,0,8.5|
4,1,3.3|
4,2,1.3|
4,3,9.1|
4,4,4.6|
4,5,3.1|
4,6,6.2|
4,7,0.5|
5,0,1.6|
5,1,6.9|
5,2,6.3|
5,3,9.3|
5,4,9.5|
5,5,2.2|
5,6,5.2|
5,7,5.3|
6,0,1.9|
6,1,4.5|
6,2,0.47|
6,3,3.5|
6,4,2.2|
6,5,3.3|
6,6,0.26|
6,7,9.4|
7,0,0.027|
7,1,8.8|
7,2,2.2|
7,3,3.8|
7,4,4.7|
7,5,4.1|
7,6,3.6|
7,7,3.4|
];
constraint_x3_y3=[
0,0,3.6|
0,1,4.6|
0,2,1.1|
0,3,2.2|
0,4,6.3|
0,5,1.5|
0,6,4|
0,7,4.5|
1,0,0.77|
1,1,8.6|
1,2,1.1|
1,3,4.4|
1,4,2.2|
1,5,6.8|
1,6,7.2|
1,7,1.2|
2,0,8|
2,1,1.3|
2,2,3.1|
2,3,2|
2,4,8.9|
2,5,3.1|
2,6,0.92|
2,7,5.9|
3,0,3.8|
3,1,3.5|
3,2,4.9|
3,3,5.7|
3,4,5.5|
3,5,4.1|
3,6,9|
3,7,5.6|
4,0,1.7|
4,1,4.1|
4,2,9.7|
4,3,1.6|
4,4,8.8|
4,5,0.88|
4,6,0.33|
4,7,9.7|
5,0,2.2|
5,1,2.6|
5,2,4.6|
5,3,2.7|
5,4,0.53|
5,5,3.8|
5,6,4.1|
5,7,0.12|
6,0,2.9|
6,1,2.1|
6,2,7.4|
6,3,8.2|
6,4,7.7|
6,5,2.1|
6,6,9|
6,7,5.4|
7,0,2.2|
7,1,7.6|
7,2,2.5|
7,3,3.5|
7,4,9.9|
7,5,8.6|
7,6,8|
7,7,1.6|
];
constraint_x4_y4=[
0,0,2.9|
0,1,8.9|
0,2,1.4|
0,3,0.22|
0,4,0.32|
0,5,4.8|
0,6,3.9|
0,7,1.4|
1,0,9.2|
1,1,8.3|
1,2,6.7|
1,3,9.9|
1,4,6.7|
1,5,6.5|
1,6,8.1|
1,7,6.9|
2,0,8.2|
2,1,5.7|
2,2,8|
2,3,6.7|
2,4,7.2|
2,5,8.7|
2,6,5.6|
2,7,8.6|
3,0,4.9|
3,1,6|
3,2,2.9|
3,3,6.4|
3,4,9.5|
3,5,6.2|
3,6,3.8|
3,7,6.8|
4,0,2.9|
4,1,0.09|
4,2,0.96|
4,3,7.1|
4,4,1.7|
4,5,7.8|
4,6,6.8|
4,7,6.9|
5,0,6|
5,1,3.9|
5,2,8.2|
5,3,5.6|
5,4,0.26|
5,5,8.1|
5,6,0.49|
5,7,2.3|
6,0,6.5|
6,1,0.76|
6,2,5.9|
6,3,6.6|
6,4,4.3|
6,5,4.6|
6,6,2.2|
6,7,3.8|
7,0,4.6|
7,1,1.3|
7,2,3.6|
7,3,3.2|
7,4,1.4|
7,5,4.5|
7,6,2.6|
7,7,0.71|
];
constraint_x5_y5=[
0,0,3.2|
0,1,8.2|
0,2,8.6|
0,3,7.5|
0,4,0.14|
0,5,5.6|
0,6,6.1|
0,7,5.8|
1,0,1.1|
1,1,0.099|
1,2,4.3|
1,3,8.3|
1,4,2.3|
1,5,0.72|
1,6,8.8|
1,7,7.7|
2,0,0.54|
2,1,2.2|
2,2,1.3|
2,3,6.8|
2,4,7|
2,5,7.1|
2,6,8.2|
2,7,7.2|
3,0,1.3|
3,1,5.5|
3,2,8.4|
3,3,7.9|
3,4,0.48|
3,5,2.1|
3,6,6|
3,7,3.1|
4,0,4.7|
4,1,9.2|
4,2,8.4|
4,3,5.2|
4,4,3|
4,5,9.5|
4,6,7.8|
4,7,2.9|
5,0,6.3|
5,1,8.7|
5,2,2|
5,3,1.9|
5,4,2.3|
5,5,5.4|
5,6,7.3|
5,7,0.44|
6,0,0.68|
6,1,2.5|
6,2,2.4|
6,3,6|
6,4,8.4|
6,5,6.3|
6,6,4.5|
6,7,4.4|
7,0,1.6|
7,1,0.54|
7,2,8.3|
7,3,2.1|
7,4,6|
7,5,4.9|
7,6,9.2|
7,7,3|
];
constraint_x6_y6=[
0,0,3.1|
0,1,5.1|
0,2,2.3|
0,3,5.1|
0,4,0.78|
0,5,2.1|
0,6,7.7|
0,7,8.4|
1,0,2.9|
1,1,5.4|
1,2,4.4|
1,3,2.2|
1,4,9.2|
1,5,6.5|
1,6,1.6|
1,7,1.2|
2,0,4.2|
2,1,5.6|
2,2,8.2|
2,3,6|
2,4,2.7|
2,5,6.2|
2,6,6.3|
2,7,4.7|
3,0,0.38|
3,1,1.6|
3,2,3.2|
3,3,4.3|
3,4,9.8|
3,5,8.2|
3,6,2.6|
3,7,9.5|
4,0,9|
4,1,4.9|
4,2,8.2|
4,3,8.5|
4,4,2.5|
4,5,7.5|
4,6,8.6|
4,7,2.2|
5,0,1.8|
5,1,9.5|
5,2,4.1|
5,3,8|
5,4,3.7|
5,5,3.8|
5,6,1.4|
5,7,7.7|
6,0,7.7|
6,1,4.6|
6,2,3.8|
6,3,4|
6,4,8.5|
6,5,0.86|
6,6,7.1|
6,7,9.3|
7,0,6.9|
7,1,0.3|
7,2,3.1|
7,3,3.5|
7,4,5.4|
7,5,4.5|
7,6,10|
7,7,6.2|
];
constraint_x7_y7=[
0,0,5.6|
0,1,3.3|
0,2,5.6|
0,3,9.2|
0,4,9.8|
0,5,9.5|
0,6,9.6|
0,7,7.8|
1,0,7.7|
1,1,0.39|
1,2,7.5|
1,3,0.47|
1,4,6|
1,5,3.6|
1,6,3.9|
1,7,2.2|
2,0,1.5|
2,1,1.6|
2,2,6.2|
2,3,2|
2,4,8.5|
2,5,6.5|
2,6,6.1|
2,7,9.9|
3,0,5.2|
3,1,3.1|
3,2,3.3|
3,3,3.6|
3,4,1.4|
3,5,7.6|
3,6,5.7|
3,7,6.4|
4,0,1.1|
4,1,1.5|
4,2,8.8|
4,3,8.5|
4,4,9.9|
4,5,3.9|
4,6,8.8|
4,7,7|
5,0,9.4|
5,1,8.3|
5,2,1.2|
5,3,4.4|
5,4,8.9|
5,5,2.1|
5,6,4.3|
5,7,5|
6,0,5|
6,1,1.8|
6,2,7.7|
6,3,0.92|
6,4,2.4|
6,5,5.9|
6,6,8.4|
6,7,7.4|
7,0,9|
7,1,2.4|
7,2,7.6|
7,3,1.1|
7,4,0.24|
7,5,5.4|
7,6,2.3|
7,7,4.1|
];
constraint_x8_y8=[
0,0,0.45|
0,1,0.57|
0,2,0.13|
0,3,4|
0,4,6.8|
0,5,9|
0,6,6.2|
0,7,4.6|
1,0,3|
1,1,7.6|
1,2,7.6|
1,3,8.1|
1,4,0.61|
1,5,1.3|
1,6,8.9|
1,7,4.6|
2,0,8.9|
2,1,4.9|
2,2,8.7|
2,3,1.6|
2,4,3.6|
2,5,2.2|
2,6,0.99|
2,7,9.2|
3,0,3.9|
3,1,0.14|
3,2,3.2|
3,3,7.8|
3,4,0.69|
3,5,9.9|
3,6,9.9|
3,7,9|
4,0,5.2|
4,1,7.6|
4,2,0.32|
4,3,1.9|
4,4,7.6|
4,5,6.3|
4,6,2.2|
4,7,7|
5,0,9.9|
5,1,3.1|
5,2,2.8|
5,3,5.2|
5,4,10|
5,5,3.5|
5,6,0.096|
5,7,5.7|
6,0,0.27|
6,1,0.14|
6,2,3.3|
6,3,0.87|
6,4,2.7|
6,5,7.4|
6,6,6.1|
6,7,5.8|
7,0,8.7|
7,1,6.1|
7,2,5.1|
7,3,6.8|
7,4,1.1|
7,5,8|
7,6,8.7|
7,7,6.3|
];
constraint_x9_y9=[
0,0,7.3|
0,1,9.6|
0,2,7|
0,3,7.9|
0,4,8.8|
0,5,1.8|
0,6,0.85|
0,7,7.2|
1,0,10|
1,1,2.8|
1,2,0.26|
1,3,8.5|
1,4,6.4|
1,5,0.82|
1,6,9|
1,7,7.3|
2,0,2.2|
2,1,5.3|
2,2,9|
2,3,5.1|
2,4,2.9|
2,5,7.1|
2,6,5.1|
2,7,1.5|
3,0,5.3|
3,1,6|
3,2,9|
3,3,1.6|
3,4,1.4|
3,5,2.8|
3,6,6.1|
3,7,8.4|
4,0,1.7|
4,1,1.3|
4,2,1.4|
4,3,2.1|
4,4,5.2|
4,5,7.3|
4,6,4.8|
4,7,8.7|
5,0,4.6|
5,1,4.4|
5,2,7.8|
5,3,2.4|
5,4,3.4|
5,5,6.9|
5,6,9.9|
5,7,4|
6,0,9.8|
6,1,2.8|
6,2,2.3|
6,3,5|
6,4,3.5|
6,5,4.9|
6,6,8.4|
6,7,8.4|
7,0,3.9|
7,1,9.4|
7,2,5.5|
7,3,3.8|
7,4,9.4|
7,5,9.3|
7,6,8.1|
7,7,6.8|
];
initial_distribution_y1=[0.1,0.13,0.14,0.032,0.16,0.17,0.14,0.12];
initial_distribution_y2=[0.098,0.18,0.16,0.026,0.049,0.18,0.12,0.2];
initial_distribution_y3=[0.16,0.21,0.15,0.19,0.014,0.12,0.032,0.13];
initial_distribution_y4=[0.12,0.17,0.14,0.17,0.11,0.13,0.027,0.13];
initial_distribution_y5=[0.083,0.17,0.17,0.15,0.13,0.075,0.16,0.062];
initial_distribution_y6=[0.074,0.19,0.091,0.028,0.16,0.16,0.23,0.068];
initial_distribution_y7=[0.16,0.18,0.011,0.2,0.26,0.089,0.019,0.077];
initial_distribution_y8=[0.082,0.084,0.23,0.12,0.051,0.086,0.3,0.041];
initial_distribution_y9=[0.18,0.1,0.16,0.11,0.1,0.15,0.18,0.0097];
transition_y1=[
0.081,0.17,0.0092,0.21,0.077,0.081,0.2,0.17|
0.15,0.086,0.22,0.04,0.042,0.08,0.13,0.26|
0.13,0.2,0.092,0.15,0.034,0.24,0.14,0.018|
0.15,0.14,0.16,0.16,0.083,0.016,0.17,0.13|
0.24,0.068,0.02,0.23,0.054,0.22,0.025,0.14|
0.057,0.11,0.15,0.1,0.19,0.17,0.086,0.14|
0.07,0.046,0.19,0.17,0.01,0.12,0.21,0.18|
0.17,0.067,0.15,0.16,0.13,0.22,0.059,0.049|
];
transition_y2=[
0.13,0.12,0.085,0.15,0.11,0.19,0.075,0.14|
0.15,0.079,0.17,0.094,0.062,0.18,0.2,0.058|
0.092,0.12,0.033,0.015,0.11,0.1,0.28,0.25|
0.062,0.034,0.21,0.2,0.23,0.11,0.15,0.0074|
0.24,0.024,0.067,0.052,0.26,0.038,0.23,0.076|
0.15,0.089,0.17,0.15,0.18,0.16,0.098,0.0099|
0.14,0.11,0.18,0.15,0.19,0.17,0.017,0.051|
0.16,0.026,0.16,0.21,0.089,0.18,0.011,0.17|
];
transition_y3=[
0.2,0.27,0.04,0.16,0.021,0.29,0.015,0.0092|
0.091,0.14,0.029,0.041,0.061,0.25,0.029,0.35|
0.0076,0.14,0.1,0.062,0.2,0.15,0.15,0.19|
0.025,0.12,0.28,0.13,0.15,0.26,0.021,0.021|
0.13,0.19,0.11,0.076,0.21,0.035,0.023,0.22|
0.13,0.037,0.23,0.26,0.025,0.13,0.032,0.16|
0.093,0.099,0.072,0.13,0.13,0.25,0.16,0.073|
0.12,0.17,0.18,0.18,0.23,0.069,0.016,0.035|
];
transition_y4=[
0.23,0.055,0.066,0.018,0.023,0.31,0.28,0.026|
0.14,0.16,0.086,0.043,0.17,0.18,0.097,0.13|
0.075,0.25,0.23,0.0035,0.025,0.17,0.22,0.024|
0.036,0.096,0.17,0.063,0.32,0.12,0.013,0.19|
0.22,0.13,0.017,0.088,0.027,0.15,0.17,0.2|
0.17,0.037,0.12,0.051,0.22,0.2,0.073,0.14|
0.15,0.13,0.036,0.21,0.048,0.1,0.13,0.2|
0.08,0.078,0.18,0.14,0.079,0.21,0.081,0.15|
];
transition_y5=[
0.053,0.13,0.014,0.12,0.11,0.19,0.19,0.19|
0.19,0.11,0.26,0.013,0.19,0.14,0.0051,0.088|
0.18,0.15,0.18,0.13,0.059,0.0092,0.11,0.17|
0.063,0.13,0.13,0.13,0.15,0.14,0.14,0.12|
0.15,0.16,0.22,0.18,0.074,0.04,0.045,0.13|
0.16,0.029,0.16,0.14,0.16,0.081,0.11,0.17|
0.18,0.14,0.1,0.084,0.0051,0.16,0.18,0.15|
0.12,0.15,0.087,0.087,0.18,0.16,0.097,0.13|
];
transition_y6=[
0.0071,0.013,0.18,0.23,0.19,0.11,0.24,0.017|
0.21,0.31,0.02,0.076,0.15,0.024,0.19,0.018|
0.12,0.11,0.15,0.25,0.009,0.25,0.012,0.095|
0.2,0.15,0.058,0.16,0.022,0.054,0.2,0.15|
0.0053,0.097,0.15,0.039,0.23,0.17,0.22,0.089|
0.096,0.11,0.045,0.058,0.25,0.15,0.16,0.13|
0.068,0.16,0.17,0.15,0.18,0.014,0.18,0.082|
0.18,0.0092,0.2,0.0074,0.27,0.0095,0.21,0.12|
];
transition_y7=[
0.23,0.12,0.045,0.25,0.13,0.0046,0.12,0.099|
0.18,0.19,0.13,0.011,0.023,0.2,0.2,0.061|
0.0043,0.12,0.29,0.21,0.068,0.063,0.054,0.19|
0.19,0.15,0.09,0.016,0.15,0.19,0.16,0.05|
0.0082,0.014,0.22,0.17,0.095,0.22,0.1,0.18|
0.027,0.0037,0.058,0.099,0.31,0.25,0.24,0.011|
0.027,0.073,0.21,0.074,0.17,0.12,0.073,0.25|
0.25,0.23,0.0071,0.14,0.14,0.064,0.084,0.089|
];
transition_y8=[
0.19,0.065,0.18,0.18,0.21,0.078,0.096,0.0032|
0.24,0.093,0.024,0.26,0.08,0.097,0.028,0.18|
0.18,0.15,0.13,0.15,0.12,0.089,0.11,0.06|
0.13,0.086,0.017,0.15,0.02,0.23,0.22,0.14|
0.16,0.014,0.15,0.24,0.028,0.15,0.039,0.21|
0.13,0.081,0.13,0.12,0.14,0.11,0.13,0.15|
0.15,0.11,0.2,0.14,0.13,0.19,0.038,0.049|
0.21,0.17,0.08,0.16,0.063,0.053,0.2,0.051|
];
transition_y9=[
0.13,0.15,0.13,0.058,0.091,0.15,0.14,0.15|
0.15,0.2,0.054,0.07,0.059,0.064,0.32,0.074|
0.17,0.12,0.22,0.17,0.18,0.043,0.046,0.051|
0.01,0.19,0.27,0.072,0.2,0.15,0.085,0.029|
0.055,0.14,0.12,0.12,0.097,0.18,0.19,0.097|
0.2,0.13,0.064,0.17,0.019,0.17,0.09,0.15|
0.21,0.19,0.099,0.18,0.14,0.071,0.046,0.057|
0.13,0.077,0.17,0.11,0.11,0.12,0.089,0.2|
];
